c Generated with `cnfgen`
c (C) 2012-2018 Massimo Lauria <lauria.massimo@gmail.com>
c https://massimolauria.net/cnfgen
c
c COMMAND LINE: cnfgen tseitin --gnd 40 5 --charge randomodd
c
p cnf 100 640
1 2 3 4 5 0
1 2 3 -4 -5 0
1 2 -3 4 -5 0
1 2 -3 -4 5 0
1 -2 3 4 -5 0
1 -2 3 -4 5 0
1 -2 -3 4 5 0
1 -2 -3 -4 -5 0
-1 2 3 4 -5 0
-1 2 3 -4 5 0
-1 2 -3 4 5 0
-1 2 -3 -4 -5 0
-1 -2 3 4 5 0
-1 -2 3 -4 -5 0
-1 -2 -3 4 -5 0
-1 -2 -3 -4 5 0
6 7 8 9 10 0
6 7 8 -9 -10 0
6 7 -8 9 -10 0
6 7 -8 -9 10 0
6 -7 8 9 -10 0
6 -7 8 -9 10 0
6 -7 -8 9 10 0
6 -7 -8 -9 -10 0
-6 7 8 9 -10 0
-6 7 8 -9 10 0
-6 7 -8 9 10 0
-6 7 -8 -9 -10 0
-6 -7 8 9 10 0
-6 -7 8 -9 -10 0
-6 -7 -8 9 -10 0
-6 -7 -8 -9 10 0
6 11 12 13 14 0
6 11 12 -13 -14 0
6 11 -12 13 -14 0
6 11 -12 -13 14 0
6 -11 12 13 -14 0
6 -11 12 -13 14 0
6 -11 -12 13 14 0
6 -11 -12 -13 -14 0
-6 11 12 13 -14 0
-6 11 12 -13 14 0
-6 11 -12 13 14 0
-6 11 -12 -13 -14 0
-6 -11 12 13 14 0
-6 -11 12 -13 -14 0
-6 -11 -12 13 -14 0
-6 -11 -12 -13 14 0
15 16 17 18 19 0
15 16 17 -18 -19 0
15 16 -17 18 -19 0
15 16 -17 -18 19 0
15 -16 17 18 -19 0
15 -16 17 -18 19 0
15 -16 -17 18 19 0
15 -16 -17 -18 -19 0
-15 16 17 18 -19 0
-15 16 17 -18 19 0
-15 16 -17 18 19 0
-15 16 -17 -18 -19 0
-15 -16 17 18 19 0
-15 -16 17 -18 -19 0
-15 -16 -17 18 -19 0
-15 -16 -17 -18 19 0
1 15 20 21 -22 0
1 15 20 -21 22 0
1 15 -20 21 22 0
1 15 -20 -21 -22 0
1 -15 20 21 22 0
1 -15 20 -21 -22 0
1 -15 -20 21 -22 0
1 -15 -20 -21 22 0
-1 15 20 21 22 0
-1 15 20 -21 -22 0
-1 15 -20 21 -22 0
-1 15 -20 -21 22 0
-1 -15 20 21 -22 0
-1 -15 20 -21 22 0
-1 -15 -20 21 22 0
-1 -15 -20 -21 -22 0
23 24 25 26 27 0
23 24 25 -26 -27 0
23 24 -25 26 -27 0
23 24 -25 -26 27 0
23 -24 25 26 -27 0
23 -24 25 -26 27 0
23 -24 -25 26 27 0
23 -24 -25 -26 -27 0
-23 24 25 26 -27 0
-23 24 25 -26 27 0
-23 24 -25 26 27 0
-23 24 -25 -26 -27 0
-23 -24 25 26 27 0
-23 -24 25 -26 -27 0
-23 -24 -25 26 -27 0
-23 -24 -25 -26 27 0
28 29 30 31 32 0
28 29 30 -31 -32 0
28 29 -30 31 -32 0
28 29 -30 -31 32 0
28 -29 30 31 -32 0
28 -29 30 -31 32 0
28 -29 -30 31 32 0
28 -29 -30 -31 -32 0
-28 29 30 31 -32 0
-28 29 30 -31 32 0
-28 29 -30 31 32 0
-28 29 -30 -31 -32 0
-28 -29 30 31 32 0
-28 -29 30 -31 -32 0
-28 -29 -30 31 -32 0
-28 -29 -30 -31 32 0
33 34 35 36 -37 0
33 34 35 -36 37 0
33 34 -35 36 37 0
33 34 -35 -36 -37 0
33 -34 35 36 37 0
33 -34 35 -36 -37 0
33 -34 -35 36 -37 0
33 -34 -35 -36 37 0
-33 34 35 36 37 0
-33 34 35 -36 -37 0
-33 34 -35 36 -37 0
-33 34 -35 -36 37 0
-33 -34 35 36 -37 0
-33 -34 35 -36 37 0
-33 -34 -35 36 37 0
-33 -34 -35 -36 -37 0
2 11 38 39 40 0
2 11 38 -39 -40 0
2 11 -38 39 -40 0
2 11 -38 -39 40 0
2 -11 38 39 -40 0
2 -11 38 -39 40 0
2 -11 -38 39 40 0
2 -11 -38 -39 -40 0
-2 11 38 39 -40 0
-2 11 38 -39 40 0
-2 11 -38 39 40 0
-2 11 -38 -39 -40 0
-2 -11 38 39 40 0
-2 -11 38 -39 -40 0
-2 -11 -38 39 -40 0
-2 -11 -38 -39 40 0
41 42 43 44 45 0
41 42 43 -44 -45 0
41 42 -43 44 -45 0
41 42 -43 -44 45 0
41 -42 43 44 -45 0
41 -42 43 -44 45 0
41 -42 -43 44 45 0
41 -42 -43 -44 -45 0
-41 42 43 44 -45 0
-41 42 43 -44 45 0
-41 42 -43 44 45 0
-41 42 -43 -44 -45 0
-41 -42 43 44 45 0
-41 -42 43 -44 -45 0
-41 -42 -43 44 -45 0
-41 -42 -43 -44 45 0
23 46 47 48 -49 0
23 46 47 -48 49 0
23 46 -47 48 49 0
23 46 -47 -48 -49 0
23 -46 47 48 49 0
23 -46 47 -48 -49 0
23 -46 -47 48 -49 0
23 -46 -47 -48 49 0
-23 46 47 48 49 0
-23 46 47 -48 -49 0
-23 46 -47 48 -49 0
-23 46 -47 -48 49 0
-23 -46 47 48 -49 0
-23 -46 47 -48 49 0
-23 -46 -47 48 49 0
-23 -46 -47 -48 -49 0
50 51 52 53 -54 0
50 51 52 -53 54 0
50 51 -52 53 54 0
50 51 -52 -53 -54 0
50 -51 52 53 54 0
50 -51 52 -53 -54 0
50 -51 -52 53 -54 0
50 -51 -52 -53 54 0
-50 51 52 53 54 0
-50 51 52 -53 -54 0
-50 51 -52 53 -54 0
-50 51 -52 -53 54 0
-50 -51 52 53 -54 0
-50 -51 52 -53 54 0
-50 -51 -52 53 54 0
-50 -51 -52 -53 -54 0
3 33 38 55 56 0
3 33 38 -55 -56 0
3 33 -38 55 -56 0
3 33 -38 -55 56 0
3 -33 38 55 -56 0
3 -33 38 -55 56 0
3 -33 -38 55 56 0
3 -33 -38 -55 -56 0
-3 33 38 55 -56 0
-3 33 38 -55 56 0
-3 33 -38 55 56 0
-3 33 -38 -55 -56 0
-3 -33 38 55 56 0
-3 -33 38 -55 -56 0
-3 -33 -38 55 -56 0
-3 -33 -38 -55 56 0
41 55 57 58 -59 0
41 55 57 -58 59 0
41 55 -57 58 59 0
41 55 -57 -58 -59 0
41 -55 57 58 59 0
41 -55 57 -58 -59 0
41 -55 -57 58 -59 0
41 -55 -57 -58 59 0
-41 55 57 58 59 0
-41 55 57 -58 -59 0
-41 55 -57 58 -59 0
-41 55 -57 -58 59 0
-41 -55 57 58 -59 0
-41 -55 57 -58 59 0
-41 -55 -57 58 59 0
-41 -55 -57 -58 -59 0
4 60 61 62 63 0
4 60 61 -62 -63 0
4 60 -61 62 -63 0
4 60 -61 -62 63 0
4 -60 61 62 -63 0
4 -60 61 -62 63 0
4 -60 -61 62 63 0
4 -60 -61 -62 -63 0
-4 60 61 62 -63 0
-4 60 61 -62 63 0
-4 60 -61 62 63 0
-4 60 -61 -62 -63 0
-4 -60 61 62 63 0
-4 -60 61 -62 -63 0
-4 -60 -61 62 -63 0
-4 -60 -61 -62 63 0
16 34 64 65 66 0
16 34 64 -65 -66 0
16 34 -64 65 -66 0
16 34 -64 -65 66 0
16 -34 64 65 -66 0
16 -34 64 -65 66 0
16 -34 -64 65 66 0
16 -34 -64 -65 -66 0
-16 34 64 65 -66 0
-16 34 64 -65 66 0
-16 34 -64 65 66 0
-16 34 -64 -65 -66 0
-16 -34 64 65 66 0
-16 -34 64 -65 -66 0
-16 -34 -64 65 -66 0
-16 -34 -64 -65 66 0
20 42 64 67 -68 0
20 42 64 -67 68 0
20 42 -64 67 68 0
20 42 -64 -67 -68 0
20 -42 64 67 68 0
20 -42 64 -67 -68 0
20 -42 -64 67 -68 0
20 -42 -64 -67 68 0
-20 42 64 67 68 0
-20 42 64 -67 -68 0
-20 42 -64 67 -68 0
-20 42 -64 -67 68 0
-20 -42 64 67 -68 0
-20 -42 64 -67 68 0
-20 -42 -64 67 68 0
-20 -42 -64 -67 -68 0
17 60 69 70 -71 0
17 60 69 -70 71 0
17 60 -69 70 71 0
17 60 -69 -70 -71 0
17 -60 69 70 71 0
17 -60 69 -70 -71 0
17 -60 -69 70 -71 0
17 -60 -69 -70 71 0
-17 60 69 70 71 0
-17 60 69 -70 -71 0
-17 60 -69 70 -71 0
-17 60 -69 -70 71 0
-17 -60 69 70 -71 0
-17 -60 69 -70 71 0
-17 -60 -69 70 71 0
-17 -60 -69 -70 -71 0
24 35 50 69 -72 0
24 35 50 -69 72 0
24 35 -50 69 72 0
24 35 -50 -69 -72 0
24 -35 50 69 72 0
24 -35 50 -69 -72 0
24 -35 -50 69 -72 0
24 -35 -50 -69 72 0
-24 35 50 69 72 0
-24 35 50 -69 -72 0
-24 35 -50 69 -72 0
-24 35 -50 -69 72 0
-24 -35 50 69 -72 0
-24 -35 50 -69 72 0
-24 -35 -50 69 72 0
-24 -35 -50 -69 -72 0
46 51 67 73 -74 0
46 51 67 -73 74 0
46 51 -67 73 74 0
46 51 -67 -73 -74 0
46 -51 67 73 74 0
46 -51 67 -73 -74 0
46 -51 -67 73 -74 0
46 -51 -67 -73 74 0
-46 51 67 73 74 0
-46 51 67 -73 -74 0
-46 51 -67 73 -74 0
-46 51 -67 -73 74 0
-46 -51 67 73 -74 0
-46 -51 67 -73 74 0
-46 -51 -67 73 74 0
-46 -51 -67 -73 -74 0
7 28 43 75 -76 0
7 28 43 -75 76 0
7 28 -43 75 76 0
7 28 -43 -75 -76 0
7 -28 43 75 76 0
7 -28 43 -75 -76 0
7 -28 -43 75 -76 0
7 -28 -43 -75 76 0
-7 28 43 75 76 0
-7 28 43 -75 -76 0
-7 28 -43 75 -76 0
-7 28 -43 -75 76 0
-7 -28 43 75 -76 0
-7 -28 43 -75 76 0
-7 -28 -43 75 76 0
-7 -28 -43 -75 -76 0
77 78 79 80 81 0
77 78 79 -80 -81 0
77 78 -79 80 -81 0
77 78 -79 -80 81 0
77 -78 79 80 -81 0
77 -78 79 -80 81 0
77 -78 -79 80 81 0
77 -78 -79 -80 -81 0
-77 78 79 80 -81 0
-77 78 79 -80 81 0
-77 78 -79 80 81 0
-77 78 -79 -80 -81 0
-77 -78 79 80 81 0
-77 -78 79 -80 -81 0
-77 -78 -79 80 -81 0
-77 -78 -79 -80 81 0
68 70 77 82 83 0
68 70 77 -82 -83 0
68 70 -77 82 -83 0
68 70 -77 -82 83 0
68 -70 77 82 -83 0
68 -70 77 -82 83 0
68 -70 -77 82 83 0
68 -70 -77 -82 -83 0
-68 70 77 82 -83 0
-68 70 77 -82 83 0
-68 70 -77 82 83 0
-68 70 -77 -82 -83 0
-68 -70 77 82 83 0
-68 -70 77 -82 -83 0
-68 -70 -77 82 -83 0
-68 -70 -77 -82 83 0
47 61 82 84 85 0
47 61 82 -84 -85 0
47 61 -82 84 -85 0
47 61 -82 -84 85 0
47 -61 82 84 -85 0
47 -61 82 -84 85 0
47 -61 -82 84 85 0
47 -61 -82 -84 -85 0
-47 61 82 84 -85 0
-47 61 82 -84 85 0
-47 61 -82 84 85 0
-47 61 -82 -84 -85 0
-47 -61 82 84 85 0
-47 -61 82 -84 -85 0
-47 -61 -82 84 -85 0
-47 -61 -82 -84 85 0
8 21 65 86 87 0
8 21 65 -86 -87 0
8 21 -65 86 -87 0
8 21 -65 -86 87 0
8 -21 65 86 -87 0
8 -21 65 -86 87 0
8 -21 -65 86 87 0
8 -21 -65 -86 -87 0
-8 21 65 86 -87 0
-8 21 65 -86 87 0
-8 21 -65 86 87 0
-8 21 -65 -86 -87 0
-8 -21 65 86 87 0
-8 -21 65 -86 -87 0
-8 -21 -65 86 -87 0
-8 -21 -65 -86 87 0
25 48 78 88 -89 0
25 48 78 -88 89 0
25 48 -78 88 89 0
25 48 -78 -88 -89 0
25 -48 78 88 89 0
25 -48 78 -88 -89 0
25 -48 -78 88 -89 0
25 -48 -78 -88 89 0
-25 48 78 88 89 0
-25 48 78 -88 -89 0
-25 48 -78 88 -89 0
-25 48 -78 -88 89 0
-25 -48 78 88 -89 0
-25 -48 78 -88 89 0
-25 -48 -78 88 89 0
-25 -48 -78 -88 -89 0
12 29 36 86 88 0
12 29 36 -86 -88 0
12 29 -36 86 -88 0
12 29 -36 -86 88 0
12 -29 36 86 -88 0
12 -29 36 -86 88 0
12 -29 -36 86 88 0
12 -29 -36 -86 -88 0
-12 29 36 86 -88 0
-12 29 36 -86 88 0
-12 29 -36 86 88 0
-12 29 -36 -86 -88 0
-12 -29 36 86 88 0
-12 -29 36 -86 -88 0
-12 -29 -36 86 -88 0
-12 -29 -36 -86 88 0
49 52 62 75 87 0
49 52 62 -75 -87 0
49 52 -62 75 -87 0
49 52 -62 -75 87 0
49 -52 62 75 -87 0
49 -52 62 -75 87 0
49 -52 -62 75 87 0
49 -52 -62 -75 -87 0
-49 52 62 75 -87 0
-49 52 62 -75 87 0
-49 52 -62 75 87 0
-49 52 -62 -75 -87 0
-49 -52 62 75 87 0
-49 -52 62 -75 -87 0
-49 -52 -62 75 -87 0
-49 -52 -62 -75 87 0
30 39 44 79 -83 0
30 39 44 -79 83 0
30 39 -44 79 83 0
30 39 -44 -79 -83 0
30 -39 44 79 83 0
30 -39 44 -79 -83 0
30 -39 -44 79 -83 0
30 -39 -44 -79 83 0
-30 39 44 79 83 0
-30 39 44 -79 -83 0
-30 39 -44 79 -83 0
-30 39 -44 -79 83 0
-30 -39 44 79 -83 0
-30 -39 44 -79 83 0
-30 -39 -44 79 83 0
-30 -39 -44 -79 -83 0
26 90 91 92 -93 0
26 90 91 -92 93 0
26 90 -91 92 93 0
26 90 -91 -92 -93 0
26 -90 91 92 93 0
26 -90 91 -92 -93 0
26 -90 -91 92 -93 0
26 -90 -91 -92 93 0
-26 90 91 92 93 0
-26 90 91 -92 -93 0
-26 90 -91 92 -93 0
-26 90 -91 -92 93 0
-26 -90 91 92 -93 0
-26 -90 91 -92 93 0
-26 -90 -91 92 93 0
-26 -90 -91 -92 -93 0
13 66 80 84 94 0
13 66 80 -84 -94 0
13 66 -80 84 -94 0
13 66 -80 -84 94 0
13 -66 80 84 -94 0
13 -66 80 -84 94 0
13 -66 -80 84 94 0
13 -66 -80 -84 -94 0
-13 66 80 84 -94 0
-13 66 80 -84 94 0
-13 66 -80 84 94 0
-13 66 -80 -84 -94 0
-13 -66 80 84 94 0
-13 -66 80 -84 -94 0
-13 -66 -80 84 -94 0
-13 -66 -80 -84 94 0
18 27 89 94 95 0
18 27 89 -94 -95 0
18 27 -89 94 -95 0
18 27 -89 -94 95 0
18 -27 89 94 -95 0
18 -27 89 -94 95 0
18 -27 -89 94 95 0
18 -27 -89 -94 -95 0
-18 27 89 94 -95 0
-18 27 89 -94 95 0
-18 27 -89 94 95 0
-18 27 -89 -94 -95 0
-18 -27 89 94 95 0
-18 -27 89 -94 -95 0
-18 -27 -89 94 -95 0
-18 -27 -89 -94 95 0
22 53 73 90 95 0
22 53 73 -90 -95 0
22 53 -73 90 -95 0
22 53 -73 -90 95 0
22 -53 73 90 -95 0
22 -53 73 -90 95 0
22 -53 -73 90 95 0
22 -53 -73 -90 -95 0
-22 53 73 90 -95 0
-22 53 73 -90 95 0
-22 53 -73 90 95 0
-22 53 -73 -90 -95 0
-22 -53 73 90 95 0
-22 -53 73 -90 -95 0
-22 -53 -73 90 -95 0
-22 -53 -73 -90 95 0
5 19 57 72 85 0
5 19 57 -72 -85 0
5 19 -57 72 -85 0
5 19 -57 -72 85 0
5 -19 57 72 -85 0
5 -19 57 -72 85 0
5 -19 -57 72 85 0
5 -19 -57 -72 -85 0
-5 19 57 72 -85 0
-5 19 57 -72 85 0
-5 19 -57 72 85 0
-5 19 -57 -72 -85 0
-5 -19 57 72 85 0
-5 -19 57 -72 -85 0
-5 -19 -57 72 -85 0
-5 -19 -57 -72 85 0
9 58 74 96 97 0
9 58 74 -96 -97 0
9 58 -74 96 -97 0
9 58 -74 -96 97 0
9 -58 74 96 -97 0
9 -58 74 -96 97 0
9 -58 -74 96 97 0
9 -58 -74 -96 -97 0
-9 58 74 96 -97 0
-9 58 74 -96 97 0
-9 58 -74 96 97 0
-9 58 -74 -96 -97 0
-9 -58 74 96 97 0
-9 -58 74 -96 -97 0
-9 -58 -74 96 -97 0
-9 -58 -74 -96 97 0
10 31 40 81 -98 0
10 31 40 -81 98 0
10 31 -40 81 98 0
10 31 -40 -81 -98 0
10 -31 40 81 98 0
10 -31 40 -81 -98 0
10 -31 -40 81 -98 0
10 -31 -40 -81 98 0
-10 31 40 81 98 0
-10 31 40 -81 -98 0
-10 31 -40 81 -98 0
-10 31 -40 -81 98 0
-10 -31 40 81 -98 0
-10 -31 40 -81 98 0
-10 -31 -40 81 98 0
-10 -31 -40 -81 -98 0
14 37 71 96 -99 0
14 37 71 -96 99 0
14 37 -71 96 99 0
14 37 -71 -96 -99 0
14 -37 71 96 99 0
14 -37 71 -96 -99 0
14 -37 -71 96 -99 0
14 -37 -71 -96 99 0
-14 37 71 96 99 0
-14 37 71 -96 -99 0
-14 37 -71 96 -99 0
-14 37 -71 -96 99 0
-14 -37 71 96 -99 0
-14 -37 71 -96 99 0
-14 -37 -71 96 99 0
-14 -37 -71 -96 -99 0
45 59 63 91 -98 0
45 59 63 -91 98 0
45 59 -63 91 98 0
45 59 -63 -91 -98 0
45 -59 63 91 98 0
45 -59 63 -91 -98 0
45 -59 -63 91 -98 0
45 -59 -63 -91 98 0
-45 59 63 91 98 0
-45 59 63 -91 -98 0
-45 59 -63 91 -98 0
-45 59 -63 -91 98 0
-45 -59 63 91 -98 0
-45 -59 63 -91 98 0
-45 -59 -63 91 98 0
-45 -59 -63 -91 -98 0
76 92 97 99 100 0
76 92 97 -99 -100 0
76 92 -97 99 -100 0
76 92 -97 -99 100 0
76 -92 97 99 -100 0
76 -92 97 -99 100 0
76 -92 -97 99 100 0
76 -92 -97 -99 -100 0
-76 92 97 99 -100 0
-76 92 97 -99 100 0
-76 92 -97 99 100 0
-76 92 -97 -99 -100 0
-76 -92 97 99 100 0
-76 -92 97 -99 -100 0
-76 -92 -97 99 -100 0
-76 -92 -97 -99 100 0
32 54 56 93 -100 0
32 54 56 -93 100 0
32 54 -56 93 100 0
32 54 -56 -93 -100 0
32 -54 56 93 100 0
32 -54 56 -93 -100 0
32 -54 -56 93 -100 0
32 -54 -56 -93 100 0
-32 54 56 93 100 0
-32 54 56 -93 -100 0
-32 54 -56 93 -100 0
-32 54 -56 -93 100 0
-32 -54 56 93 -100 0
-32 -54 56 -93 100 0
-32 -54 -56 93 100 0
-32 -54 -56 -93 -100 0
